(set-info :smt-lib-version 2.6)
(set-logic QF_S)
(set-info :source |
Generated by: Hung-En Wang, Tzung-Lin Tsai, Chun-Han Lin, Fang Yu, and Jie-Hong R. Jiang
Generated on: 2019-02-28
Generator: Stranger
Application: Security analysis of string manipulating web applications
Target solver: CVC4, Norn, Z3-str2
Publication:
Hung-En Wang, Tzung-Lin Tsai, Chun-Han Lin, Fang Yu, Jie-Hong R. Jiang:
String Analysis via Automata Manipulation with Logic Circuit Representation. CAV (1) 2016: 241-260.
|)
(set-info :license "https://creativecommons.org/licenses/by/4.0/")
(set-info :category "industrial")
(set-info :status unknown)

(declare-fun sigmaStar_0 () String)
(declare-fun sigmaStar_1 () String)
(declare-fun sigmaStar_2 () String)
(declare-fun sigmaStar_3 () String)
(declare-fun literal_4 () String)
(declare-fun x_8 () String)
(declare-fun literal_6 () String)
(declare-fun x_9 () String)
(declare-fun literal_5 () String)
(declare-fun x_10 () String)
(declare-fun literal_7 () String)
(declare-fun x_11 () String)
(declare-fun x_12 () String)
(declare-fun x_13 () String)
(declare-fun x_15 () String)
(declare-fun x_17 () String)
(declare-fun literal_16 () String)
(declare-fun x_18 () String)
(declare-fun x_21 () String)
(declare-fun x_22 () String)
(declare-fun literal_23 () String)
(declare-fun x_24 () String)
(assert (= literal_4 "\u{3c}\u{62}\u{72}\u{3e}"))
(assert (= x_8 (str.++ sigmaStar_0 literal_4)))
(assert (= literal_6 ""))
(assert (= x_9 (str.++ literal_6 x_8)))
(assert (= literal_5 "\u{3c}\u{62}\u{72}\u{3e}"))
(assert (= x_10 (str.++ sigmaStar_3 literal_5)))
(assert (= literal_7 "\u{3c}\u{62}\u{72}\u{3e}"))
(assert (= x_11 (str.++ sigmaStar_1 literal_7)))
(assert (or (= x_12 x_9) (= x_12 literal_6)))
(assert (= x_13 (str.++ x_12 x_11)))
(assert (or (= x_15 x_9) (= x_15 literal_6) (= x_15 x_13)))
(assert (= x_17 (str.++ x_15 x_10)))
(assert (= literal_16 "\u{3c}\u{62}\u{72}\u{3e}\u{3c}\u{62}\u{72}\u{3e}\u{5c}\u{6e}"))
(assert (= x_18 (str.++ sigmaStar_2 literal_16)))
(assert (or (= x_21 x_9) (= x_21 x_17) (= x_21 literal_6) (= x_21 x_13)))
(assert (= x_22 (str.++ x_18 x_21)))
(assert (= literal_23 "\u{3c}\u{62}\u{72}\u{3e}\u{5c}\u{6e}"))
(assert (= x_24 (str.++ x_22 literal_23)))
(assert (str.in_re x_24 (re.++ (re.* re.allchar) (re.++ (str.to_re "\u{5c}\u{3c}\u{53}\u{43}\u{52}\u{49}\u{50}\u{54}") (re.* re.allchar)))))
(check-sat)
(exit)
